networks/zoo_28_145/zoo_28_145.txt
Number of groups: 13
Flow 2: {1 7} {7 3} {3 17} 
Flow 3: {7 4} {4 18} 
Flow 9: {7 11} {11 25} 
Flow 12: {2 7} {7 1} {1 15} 
Flow 34: {4 7} {7 12} {12 26} 
Flow 37: {5 8} {8 7} {7 2} {2 16} 
Flow 51: {6 7} {7 10} {10 24} 
Flow 84: {9 7} {7 21} 
Flow 97: {10 7} {7 8} {8 22} 
Flow 106: {11 7} {7 6} {6 20} 
Flow 120: {12 7} {7 9} {9 23} 
Flow 133: {13 8} {8 14} {14 28} 
Flow 138: {14 8} {8 5} {5 19} 
Time taken running everything: 1 seconds
