networks/zoo_28_145/standard/zoo_28_145.sol
<?xml version = "1.0" encoding="UTF-8" standalone="yes"?>
<CPLEXSolution version="1.2">
 <header
   problemName="networks/zoo_28_145/zoo_28_145.lp"
   solutionName="incumbent"
   solutionIndex="-1"
   objectiveValue="13"
   solutionTypeValue="3"
   solutionTypeString="primal"
   solutionStatusValue="101"
   solutionStatusString="integer optimal solution"
   solutionMethodString="mip"
   primalFeasible="1"
   dualFeasible="1"
   MIPNodes="0"
   MIPIterations="292"
   writeLevel="3"/>
 <quality
   epInt="1.0000000000000001e-05"
   epRHS="9.9999999999999995e-07"
   maxIntInfeas="0"
   maxPrimalInfeas="0"
   maxX="3"
   maxSlack="9"/>
 <variables>
  <variable name="Y(2,3)" index="29" value="1"/>
  <variable name="Y(3,4)" index="57" value="1"/>
  <variable name="Y(9,11)" index="226" value="1"/>
  <variable name="Y(12,1)" index="297" value="1"/>
  <variable name="Y(34,12)" index="902" value="1"/>
  <variable name="Y(37,2)" index="973" value="1"/>
  <variable name="Y(51,10)" index="1359" value="1"/>
  <variable name="Y(84,7)" index="2247" value="1"/>
  <variable name="Y(97,8)" index="2599" value="1"/>
  <variable name="Y(106,6)" index="2840" value="1"/>
  <variable name="Y(120,9)" index="3221" value="1"/>
  <variable name="Y(133,14)" index="3577" value="1"/>
  <variable name="Y(138,5)" index="3703" value="1"/>
  <variable name="X(1,7,2)" index="3916" value="1"/>
  <variable name="X(1,15,12)" index="4071" value="1"/>
  <variable name="X(2,7,12)" index="4216" value="1"/>
  <variable name="X(2,16,37)" index="4386" value="1"/>
  <variable name="X(3,17,2)" index="4496" value="1"/>
  <variable name="X(4,7,34)" index="4673" value="1"/>
  <variable name="X(4,18,3)" index="4787" value="1"/>
  <variable name="X(5,8,37)" index="4966" value="1"/>
  <variable name="X(5,19,138)" index="5212" value="1"/>
  <variable name="X(6,7,51)" index="5270" value="1"/>
  <variable name="X(6,20,106)" index="5470" value="1"/>
  <variable name="X(7,1,12)" index="5521" value="1"/>
  <variable name="X(7,2,37)" index="5691" value="1"/>
  <variable name="X(7,3,2)" index="5801" value="1"/>
  <variable name="X(7,4,3)" index="5947" value="1"/>
  <variable name="X(7,6,106)" index="6195" value="1"/>
  <variable name="X(7,8,97)" index="6331" value="1"/>
  <variable name="X(7,9,120)" index="6499" value="1"/>
  <variable name="X(7,10,51)" index="6575" value="1"/>
  <variable name="X(7,11,9)" index="6678" value="1"/>
  <variable name="X(7,12,34)" index="6848" value="1"/>
  <variable name="X(7,21,84)" index="7043" value="1"/>
  <variable name="X(8,5,138)" index="7242" value="1"/>
  <variable name="X(8,7,37)" index="7286" value="1"/>
  <variable name="X(8,14,133)" index="7527" value="1"/>
  <variable name="X(8,22,97)" index="7636" value="1"/>
  <variable name="X(9,7,84)" index="7768" value="1"/>
  <variable name="X(9,23,120)" index="7949" value="1"/>
  <variable name="X(10,7,97)" index="8071" value="1"/>
  <variable name="X(10,24,51)" index="8170" value="1"/>
  <variable name="X(11,7,106)" index="8370" value="1"/>
  <variable name="X(11,25,9)" index="8418" value="1"/>
  <variable name="X(12,7,120)" index="8674" value="1"/>
  <variable name="X(12,26,34)" index="8733" value="1"/>
  <variable name="X(13,8,133)" index="8977" value="1"/>
  <variable name="X(14,8,138)" index="9127" value="1"/>
  <variable name="X(14,28,133)" index="9267" value="1"/>
  <variable name="C(2,7)" index="9284" value="1"/>
  <variable name="C(2,3)" index="9285" value="2"/>
  <variable name="C(3,4)" index="9288" value="1"/>
  <variable name="C(9,11)" index="9306" value="1"/>
  <variable name="C(12,7)" index="9315" value="1"/>
  <variable name="C(12,1)" index="9316" value="2"/>
  <variable name="C(34,7)" index="9382" value="1"/>
  <variable name="C(34,12)" index="9383" value="2"/>
  <variable name="C(37,8)" index="9393" value="1"/>
  <variable name="C(37,7)" index="9394" value="2"/>
  <variable name="C(37,2)" index="9395" value="3"/>
  <variable name="C(51,7)" index="9439" value="1"/>
  <variable name="C(51,10)" index="9440" value="2"/>
  <variable name="C(84,7)" index="9527" value="1"/>
  <variable name="C(97,7)" index="9566" value="1"/>
  <variable name="C(97,8)" index="9567" value="2"/>
  <variable name="C(106,7)" index="9595" value="1"/>
  <variable name="C(106,6)" index="9596" value="2"/>
  <variable name="C(120,7)" index="9637" value="1"/>
  <variable name="C(120,9)" index="9638" value="2"/>
  <variable name="C(133,8)" index="9682" value="1"/>
  <variable name="C(133,14)" index="9683" value="2"/>
  <variable name="C(138,8)" index="9701" value="1"/>
  <variable name="C(138,5)" index="9702" value="2"/>
 </variables>
</CPLEXSolution>
